************************************************************************
file with basedata            : md349_.bas
initial value random generator: 774049507
************************************************************************
projects                      :  1
jobs (incl. supersource/sink ):  22
horizon                       :  160
RESOURCES
  - renewable                 :  2   R
  - nonrenewable              :  2   N
  - doubly constrained        :  0   D
************************************************************************
PROJECT INFORMATION:
pronr.  #jobs rel.date duedate tardcost  MPM-Time
    1     20      0       25        2       25
************************************************************************
PRECEDENCE RELATIONS:
jobnr.    #modes  #successors   successors
   1        1          3           2   3   4
   2        3          2          13  15
   3        3          3           5  10  11
   4        3          3           6   8  15
   5        3          3           6   7  13
   6        3          1           9
   7        3          2           9  12
   8        3          3          16  17  20
   9        3          2          17  18
  10        3          2          12  14
  11        3          1          21
  12        3          2          15  19
  13        3          2          17  20
  14        3          3          16  19  20
  15        3          1          16
  16        3          1          18
  17        3          2          19  21
  18        3          1          21
  19        3          1          22
  20        3          1          22
  21        3          1          22
  22        1          0        
************************************************************************
REQUESTS/DURATIONS:
jobnr. mode duration  R 1  R 2  N 1  N 2
------------------------------------------------------------------------
  1      1     0       0    0    0    0
  2      1     1       7    9    8    0
         2     3       7    8    7    0
         3     5       7    7    0    7
  3      1     2      10    7    0    3
         2     5       9    4    8    0
         3     8       9    4    5    0
  4      1     3       3    4    6    0
         2     6       3    2    5    0
         3     9       2    1    0    7
  5      1     5       7    8    9    0
         2     8       5    7    0    4
         3    10       3    4    0    3
  6      1     1       9    1   10    0
         2     5       6    1    6    0
         3     6       5    1    3    0
  7      1     1       8    5    4    0
         2     4       6    4    0    4
         3    10       4    2    3    0
  8      1     4      10    8    0    2
         2     5      10    7    4    0
         3     9       9    7    2    0
  9      1     6       5    9    9    0
         2     8       4    7    0   10
         3    10       4    5    0    5
 10      1     7       9    7    3    0
         2     7       6    9    2    0
         3    10       5    4    2    0
 11      1     6       3    8    0    8
         2     7       2    8    0    6
         3     9       2    6    0    5
 12      1     4       5   10    2    0
         2     4       5    9    0    5
         3     8       5    8    0    2
 13      1     2       2    6    7    0
         2     2       2    5    9    0
         3     3       1    5    4    0
 14      1     1       9    5    8    0
         2     4       7    4    4    0
         3     5       7    4    3    0
 15      1     2       7    7    7    0
         2     9       7    6    6    0
         3    10       6    6    2    0
 16      1     4       7    7    0    4
         2     5       5    7    0    3
         3     9       5    6    0    3
 17      1     4       9   10    0    3
         2     5       8    8    6    0
         3     6       8    4    0    2
 18      1     3       4    8    9    0
         2     5       4    8    0    8
         3    10       3    6    9    0
 19      1     4      10   10    7    0
         2     9       8    9    0    2
         3    10       4    9    0    2
 20      1     2       7    9    0    7
         2     2       7    9    8    0
         3     8       7    9    6    0
 21      1     3       8    7    2    0
         2     3       6    8    0    3
         3     5       5    7    0    1
 22      1     0       0    0    0    0
************************************************************************
RESOURCEAVAILABILITIES:
  R 1  R 2  N 1  N 2
   15   15  119   77
************************************************************************
MAXIMAL LAGS:
from  to  type  delay
    1   12   ES      0
    1    2   ES      0
    2   12   ES      0
    1    3   ES      0
    3   12   ES      0
    1    4   ES      0
    4   12   ES      0
    1    5   ES      0
    5   12   ES      0
    1    6   ES      0
    6   12   ES      0
    1    7   ES      0
    7   12   ES      0
    1    8   ES      0
    8   12   ES      0
    1    9   ES      0
    9   12   ES      0
    1   10   ES      0
   10   12   ES      0
    1   11   ES      0
   11   12   ES      0
    1   12   ES      0
    2   13   SS      2
    2   13   SE    -10
    2   13   ES     -9
    2   13   EE      8
    2   15   SS      6
    2   15   SE      8
    2   15   ES     -1
    2   15   EE     -8
    3    5   SS      6
    3    5   SE     10
    5    3   SE      0
    3    5   ES      0
    3    5   EE     -5
    3   10   SS     -2
    3   10   SE     -6
    3   10   ES    -11
    3   10   EE     10
    3   11   SS     -1
    3   11   SE      6
    3   11   ES      2
    3   11   EE     11
    4    6   SS    -12
    4    6   SE     -7
    4    6   ES     -1
    4    6   EE     -1
    4    8   SS     -9
    4    8   SE     -7
    4    8   ES      4
    4    8   EE     -7
    4   15   SS      2
    4   15   SE      1
    4   15   ES      9
    4   15   EE     -6
    5    6   SS      1
    5    6   SE     -3
    5    6   ES     -5
    5    6   EE    -10
    5    7   SS     -2
    5    7   SE      7
    5    7   ES     -3
    5    7   EE      4
    5   13   SS      7
    5   13   SE      5
    5   13   ES      6
    5   13   EE     12
    6    9   SS     -2
    6    9   SE      7
    6    9   ES      0
    6    9   EE     -1
    7    9   SS     -3
    7    9   SE      1
    7    9   ES      9
    7    9   EE      1
    8   16   SS     -5
    8   16   SE     -3
    8   16   ES     -2
    8   16   EE     12
    8   17   SS     -4
    8   17   SE     -3
    8   17   ES     11
    8   17   EE     -5
    8   20   SS     -3
    8   20   SE     10
    8   20   ES     -4
    8   20   EE    -10
    9   17   SS     -3
    9   17   SE      7
    9   17   ES     -9
    9   17   EE      0
    9   18   SS      6
    9   18   SE      7
    9   18   ES      6
    9   18   EE     -5
   10   14   SS     12
   10   14   SE      7
   10   14   ES     -5
   10   14   EE     10
   11   21   SS     -4
   11   21   SE     -4
   11   21   ES      6
   11   21   EE      2
   12   15   SS     -3
   12   15   SE     -5
   12   15   ES      6
   12   15   EE     -4
   12   19   SS      1
   12   19   SE     -4
   12   19   ES    -12
   12   19   EE      4
   13   17   SS     12
   13   17   SE      9
   13   17   ES      9
   13   17   EE     10
   13   20   SS      5
   13   20   SE     -7
   13   20   ES     -8
   13   20   EE     -5
   14   16   SS    -11
   14   16   SE      6
   14   16   ES     -2
   14   16   EE      4
   14   19   SS      1
   14   19   SE     -8
   14   19   ES      7
   14   19   EE     11
   14   20   SS      3
   14   20   SE     11
   14   20   ES     -6
   14   20   EE      6
   15   16   SS      9
   15   16   SE      5
   15   16   ES      8
   15   16   EE     12
   16   18   SS      4
   16   18   SE      6
   16   18   ES     -4
   16   18   EE     -9
   17   19   SS     -5
   17   19   SE     -7
   17   19   ES     -9
   17   19   EE    -12
   17   21   SS     12
   17   21   SE      6
   17   21   ES      2
   17   21   EE     -8
   18   21   SS    -11
   18   21   SE     10
   18   21   ES     -7
   18   21   EE     -9
   19   22   SS      3
   19   22   SE     12
   19   22   ES    -11
   19   22   EE      3
   20   22   SS     -2
   20   22   SE     -3
   20   22   ES      4
   20   22   EE     -1
   21   22   SS     -6
   21   22   SE     -3
   21   22   ES      8
   21   22   EE     10
************************************************************************
